
******************************************************************************
This program contains Ipopt, a library for large-scale nonlinear optimization.
 Ipopt is released as open source code under the Eclipse Public License (EPL).
         For more information visit http://projects.coin-or.org/Ipopt

This version of Ipopt was compiled from source code available at
    https://github.com/IDAES/Ipopt as part of the Institute for the Design of
    Advanced Energy Systems Process Systems Engineering Framework (IDAES PSE
    Framework) Copyright (c) 2018-2019. See https://github.com/IDAES/idaes-pse.

This version of Ipopt was compiled using HSL, a collection of Fortran codes
    for large-scale scientific computation.  All technical papers, sales and
    publicity material resulting from use of the HSL codes within IPOPT must
    contain the following acknowledgement:
        HSL, a collection of Fortran codes for large-scale scientific
        computation. See http://www.hsl.rl.ac.uk.
******************************************************************************

This is Ipopt version 3.13.2, running with linear solver ma27.

Number of nonzeros in equality constraint Jacobian...:      928
Number of nonzeros in inequality constraint Jacobian.:        0
Number of nonzeros in Lagrangian Hessian.............:      806

Total number of variables............................:      403
                     variables with only lower bounds:      124
                variables with lower and upper bounds:      217
                     variables with only upper bounds:        0
Total number of equality constraints.................:      402
Total number of inequality constraints...............:        0
        inequality constraints with only lower bounds:        0
   inequality constraints with lower and upper bounds:        0
        inequality constraints with only upper bounds:        0

iter    objective    inf_pr   inf_du lg(mu)  ||d||  lg(rg) alpha_du alpha_pr  ls
   0  0.0000000e+00 1.12e+00 2.22e-16  -1.0 0.00e+00    -  0.00e+00 0.00e+00   0
   1  2.6558377e-01 9.21e-01 1.90e+05  -1.0 1.58e+05    -  2.49e-01 2.00e-01h  1
   2  2.9842414e-01 9.07e-01 1.87e+05  -1.0 1.54e+05    -  5.17e-01 1.46e-02h  1
   3  3.9039918e+00 5.24e-01 9.93e+04  -1.0 1.74e+05    -  5.21e-01 5.13e-01h  1
   4  1.3314950e+01 1.05e-01 1.98e+04  -1.0 9.74e+04    -  6.67e-01 9.90e-01h  1
   5  1.4099655e+01 6.18e-03 1.80e+02  -1.0 5.92e+03    -  9.66e-01 9.90e-01h  1
   6  1.4111082e+01 8.06e-05 1.05e+01  -1.0 1.83e+02    -  9.90e-01 9.90e-01h  1
   7  1.4112667e+01 7.82e-05 2.50e+07  -1.0 1.00e+03    -  9.90e-01 3.09e-02f  6
   8  1.4117455e+01 7.57e-05 5.00e+07  -1.0 3.03e+03    -  9.90e-01 3.09e-02f  6
   9  1.4275297e+01 2.31e-04 7.77e+05  -1.0 3.15e+03    -  1.00e+00 9.90e-01H  1
iter    objective    inf_pr   inf_du lg(mu)  ||d||  lg(rg) alpha_du alpha_pr  ls
  10  1.4257988e+01 8.12e-06 2.77e+07  -1.0 3.39e+02    -  1.00e+00 9.90e-01h  1
  11  1.4259805e+01 8.39e-08 2.77e+09  -1.0 3.57e+01    -  1.00e+00 9.90e-01h  1
  12  1.4259822e+01 8.40e-10 2.77e+11  -1.0 3.16e-01    -  1.00e+00 9.90e-01h  1
In iteration 12, 31 Slacks too small, adjusting variable bounds
  13  1.4259822e+01 8.44e-12 2.77e+13  -1.0 3.16e-03    -  1.00e+00 9.90e-01h  1
  14  1.4259822e+01 5.70e-12 1.99e-01  -1.0 3.16e-05    -  1.00e+00 1.00e+00h  1
  15  1.4259804e+01 4.69e-12 2.76e+13  -9.0 4.09e+03    -  9.75e-01 8.63e-05f 14
  16  1.4259785e+01 9.52e-12 2.83e+13  -9.0 3.02e+03    -  9.94e-01 1.17e-04f 14
  17  1.4259784e+01 9.57e-12 2.83e+13  -9.0 2.90e+03    -  9.96e-01 7.60e-06f 18
  18  1.4259780e+01 9.89e-12 2.83e+13  -9.0 2.89e+03    -  1.00e+00 3.05e-05f 16
  19  1.4259779e+01 9.75e-12 2.83e+13  -9.0 2.89e+03    -  1.00e+00 7.63e-06f 18
iter    objective    inf_pr   inf_du lg(mu)  ||d||  lg(rg) alpha_du alpha_pr  ls
  20  1.4111970e+01 1.77e-03 1.20e+08  -9.0 2.89e+03    -  1.00e+00 1.00e+00f  1
  21  1.4110348e+01 4.62e-08 1.35e-02  -9.0 2.88e+01    -  1.00e+00 1.00e+00h  1
  22  1.4110348e+01 2.44e-12 6.84e-11  -9.0 5.55e-04    -  1.00e+00 1.00e+00h  1

Number of Iterations....: 22

                                   (scaled)                 (unscaled)
Objective...............:   1.4110347896616947e+01    1.4110347896616947e+01
Dual infeasibility......:   6.8415073276843264e-11    6.8415073276843264e-11
Constraint violation....:   2.4371615836571436e-12    2.4371615836571436e-12
Complementarity.........:   9.0909090909090931e-10    9.0909090909090931e-10
Overall NLP error.......:   6.4291324806745195e-12    9.0909090909090931e-10


Number of objective function evaluations             = 129
Number of objective gradient evaluations             = 23
Number of equality constraint evaluations            = 129
Number of inequality constraint evaluations          = 0
Number of equality constraint Jacobian evaluations   = 23
Number of inequality constraint Jacobian evaluations = 0
Number of Lagrangian Hessian evaluations             = 22
Total CPU secs in IPOPT (w/o function evaluations)   =      0.055
Total CPU secs in NLP function evaluations           =      1.212

EXIT: Optimal Solution Found.
